32	0

0	2	2	3
9	2	4	5
5	2	4	5
4	1	6
5	1	6
4	1	7
10	3	8	10	11
3	2	9	12
4	2	13	15
6	2	12	13
6	2	12	13
8	2	14	15
9	2	14	16
5	3	17	18	19
3	1	16
4	3	17	18	19
7	3	21	22	23
5	1	20
7	3	21	22	23
1	3	21	22	23
4	2	24	27
4	2	24	27
5	2	25	27
6	1	25
1	2	26	28
10	2	30	31
7	1	28
4	1	29
7	2	30	31
2	1	32
3	1	32
0	0
